language Essence 1.3

letting class be function(1 --> 2, 2 --> 7, 3 --> 2, 4 --> 4, 5 --> 1, 6 --> 6, 7 --> 3, 8 --> 5)
letting deck_length be 77
letting deck_width be 69
letting length be function(1 --> 7, 2 --> 1, 3 --> 35, 4 --> 8, 5 --> 1, 6 --> 1, 7 --> 19, 8 --> 1)
letting n_classes be 7
letting n_containers be 8
letting separation be function()
letting width be function(1 --> 16, 2 --> 52, 3 --> 62, 4 --> 69, 5 --> 5, 6 --> 12, 7 --> 54, 8 --> 1)
